qe/outputs/qe/qe_queries_cbrdelay_obs_redo/T=5,eliminate=[I_0,I_1,I_2,I_3,I_4,L_4,C,B,lhs=S_4].smt2
; benchmark generated from python API
(set-info :status unknown)
(declare-fun S_2 () Real)
(declare-fun A_2 () Real)
(declare-fun L_2 () Real)
(declare-fun L_1 () Real)
(declare-fun S_1 () Real)
(declare-fun A_1 () Real)
(declare-fun S_4 () Real)
(declare-fun A_4 () Real)
(declare-fun L_0 () Real)
(declare-fun S_0 () Real)
(declare-fun A_0 () Real)
(declare-fun A_3 () Real)
(declare-fun S_3 () Real)
(assert
 (let (($x34 (>= L_0 0.0)))
 (let ((?x363 (* (- 1.0) A_2)))
 (let ((?x5901 (* (/ 1.0 3.0) L_2)))
 (let (($x61 (= L_2 L_1)))
 (let (($x6864 (or $x61 (<= (+ ?x5901 (* (/ 2.0 3.0) A_3) ?x363 (* (/ 1.0 3.0) S_0)) (- 5.0)) (<= (+ L_2 A_3 (* (- 2.0) A_2) A_1 (* (- 1.0) L_1)) (- 10.0)))))
 (let ((?x236 (* (- 1.0) L_1)))
 (let ((?x366 (* (- 1.0) A_3)))
 (let ((?x999 (* 2.0 L_2)))
 (let ((?x429 (+ ?x999 ?x366 ?x363 A_1 S_4 ?x236)))
 (let (($x6830 (<= (+ (* 3.0 L_2) (* (- 2.0) A_3) ?x363 (* 2.0 S_4) S_0) (- 5.0))))
 (let (($x6840 (or $x61 (<= (+ ?x363 (* (/ 3.0 2.0) S_1) (* (- (/ 1.0 2.0)) S_0) L_2) (- 5.0)))))
 (let ((?x1685 (* (- 4.0) L_1)))
 (let ((?x1011 (* (- 1.0) S_0)))
 (let ((?x1606 (* 4.0 A_1)))
 (let ((?x1651 (* (- 4.0) A_2)))
 (let ((?x1013 (* 3.0 L_2)))
 (let (($x6666 (<= 0.0 (+ (* (- 1.0) A_1) S_2 L_1))))
 (let (($x6289 (<= (+ (* (- 1.0) L_2) A_3 (* (- 3.0) S_2) (* 2.0 S_0)) 0.0)))
 (let ((?x361 (* (- 1.0) A_1)))
 (let ((?x6730 (* (- (/ 1.0 3.0)) L_2)))
 (let (($x51 (= L_1 L_0)))
 (let (($x8160 (or $x51 (<= (+ ?x6730 (* (/ 1.0 3.0) A_3) ?x361 (* (/ 2.0 3.0) S_0) L_1) (- 5.0)))))
 (let ((?x998 (* (- 2.0) L_1)))
 (let ((?x335 (* (- 1.0) S_1)))
 (let ((?x997 (* 2.0 A_1)))
 (let ((?x996 (* (- 2.0) A_2)))
 (let (($x6758 (or $x51 (<= (+ ?x361 (* (/ 1.0 2.0) S_2) (* (/ 1.0 2.0) S_0) L_1) (- 5.0)))))
 (let (($x8199 (or $x61 (<= (+ ?x996 ?x997 (* (- 1.0) A_0) S_2 ?x998 ?x999 L_0) 0.0))))
 (let (($x6501 (or $x61 (<= (+ ?x363 (* (- 1.0) A_0) (* 2.0 S_1) L_2 L_0) (- 5.0)))))
 (let (($x8319 (or $x61 (<= (+ L_2 A_3 ?x996 ?x997 (* (- 1.0) S_2) ?x998) 0.0))))
 (let ((?x1012 (* (- 3.0) L_1)))
 (let ((?x1033 (* (- 1.0) A_0)))
 (let ((?x1010 (* 3.0 A_1)))
 (let ((?x1009 (* (- 3.0) A_2)))
 (let (($x5436 (<= (+ A_2 (* (- 2.0) A_1) S_0 (* 2.0 L_1) (* (- 1.0) L_2)) (- 5.0))))
 (let (($x5049 (<= (+ (* (/ 1.0 2.0) L_2) (* (/ 1.0 2.0) A_3) ?x363 (* (/ 1.0 2.0) S_1)) (- 5.0))))
 (let (($x1325 (<= (+ A_2 ?x361 (* (- 1.0) S_2) S_0 L_1 (* (- 1.0) L_2)) 0.0)))
 (let (($x108 (>= S_1 S_0)))
 (let (($x111 (>= S_2 S_1)))
 (let (($x117 (>= S_4 S_3)))
 (let (($x119 (>= A_1 A_0)))
 (let (($x120 (>= A_2 A_1)))
 (let (($x121 (>= A_3 A_2)))
 (and (<= (+ A_3 (* (- 1.0) L_2)) S_3) $x121 $x120 $x119 $x117 $x111 $x108 (or $x51 (not (<= 0.0 (+ ?x236 L_0)))) (or $x61 (<= (+ ?x363 S_2 L_2) (- 5.0))) (or $x61 (<= ?x429 0.0)) (or $x51 (<= (+ ?x361 S_1 L_1) (- 5.0))) (or $x61 (<= (+ ?x1009 ?x1010 S_2 ?x1011 ?x1012 ?x1013) 0.0)) (or $x61 (<= (+ ?x363 A_1 ?x1033 S_1 ?x236 L_2 L_0) 0.0)) (or $x61 (<= (+ ?x996 ?x997 S_1 ?x1011 ?x998 ?x999) 0.0)) (or $x51 $x1325) (or (not (<= 0.0 (+ L_1 (* (- 1.0) L_2)))) $x61) (or $x6666 (<= (+ (* (- 1.0) S_2) S_0) (- 5.0))) (or $x61 $x5049) (or $x51 $x5436) (or $x61 (<= (+ L_2 A_3 ?x996 A_1 ?x236) (- 5.0))) (or $x61 (<= (+ ?x999 A_3 ?x1009 ?x1010 ?x335 ?x1012) 0.0)) (or $x61 (<= (+ ?x999 A_3 ?x1009 ?x1010 ?x1033 ?x1012 L_0) 0.0)) $x8319 (or $x6666 (<= (+ L_2 ?x366 S_4 (* (- 1.0) S_2) S_0) 0.0)) $x6501 $x8199 $x6758 (or $x51 (<= (+ L_2 ?x366 ?x361 S_4 S_0 L_1) (- 5.0))) (or $x61 (<= (+ ?x996 ?x997 S_2 ?x335 ?x998 ?x999) 0.0)) (or $x51 (<= (+ ?x361 S_0 L_1) (- 10.0))) (or $x51 (<= (+ A_3 ?x363 ?x361 S_0 L_1) (- 5.0))) $x8160 (or $x6666 $x6289) (or $x6666 (<= (+ A_3 ?x363 (* (- 1.0) S_2) S_0) 0.0)) (or $x61 (<= (+ ?x1013 A_3 ?x1651 ?x1606 ?x1011 ?x1685) 0.0)) (or $x61 (<= (+ ?x999 ?x366 ?x363 S_4 S_1) (- 5.0))) $x6840 (or $x61 $x6830 (<= ?x429 (- 5.0))) $x6864 $x34 (<= (+ L_2 S_3 ?x366) 0.0) (<= (+ ?x1033 S_0 L_0) 0.0) (<= (+ L_2 (* (- 1.0) A_4) S_4) 0.0) (<= (+ ?x361 S_1 L_1) 0.0) (<= (+ L_2 ?x363 S_2) 0.0))))))))))))))))))))))))))))))))))))))))))))))
(check-sat)
